15	4	2
2085	2085	2085	2085	
421	706	1240	
293	282	375	
126	790	1495	
752	856	1205	
582	30	39	
800	103	193	
898	344	635	
23	739	1198	
69	974	1618	
498	603	841	
355	954	1797	
72	346	511	
846	506	642	
453	313	513	
743	796	1057	
